sifdecoder -A pc64.lnx.gfo -st   EXTRASIM

 Problem name: EXTRASIM

 Double precision version will be formed

 The objective function uses 1 linear group
 
 There is 1 linear equality constraint
 
 There is 1 free variable 
 There is 1 variable bounded only from below 
 
 
 File successfully decoded
 CUTEST: tools (double precision version) compiled successfully
 CUTEst: ipopt (double precision version) compiled successfully

******************************************************************************
This program contains Ipopt, a library for large-scale nonlinear optimization.
 Ipopt is released as open source code under the Eclipse Public License (EPL).
         For more information visit http://projects.coin-or.org/Ipopt
******************************************************************************

This is Ipopt version trunk, running with linear solver ma57.

Number of nonzeros in equality constraint Jacobian...:        2
Number of nonzeros in inequality constraint Jacobian.:        0
Number of nonzeros in Lagrangian Hessian.............:        0

Total number of variables............................:        2
                     variables with only lower bounds:        1
                variables with lower and upper bounds:        0
                     variables with only upper bounds:        0
Total number of equality constraints.................:        1
Total number of inequality constraints...............:        0
        inequality constraints with only lower bounds:        0
   inequality constraints with lower and upper bounds:        0
        inequality constraints with only upper bounds:        0

iter    objective    inf_pr   inf_du lg(mu)  ||d||  lg(rg) alpha_du alpha_pr  ls
   0  1.0100000e+00 1.99e+00 0.00e+00  -1.0 0.00e+00    -  0.00e+00 0.00e+00   0
   1  1.1000000e+00 0.00e+00 1.00e-06  -1.0 9.50e-01    -  1.00e+00 1.00e+00h  1
   2  1.0028285e+00 2.22e-16 2.83e-08  -2.5 9.72e-02    -  1.00e+00 1.00e+00f  1
   3  1.0001504e+00 2.22e-16 1.50e-09  -3.8 2.68e-03    -  1.00e+00 1.00e+00f  1
   4  1.0000018e+00 0.00e+00 1.84e-11  -5.7 1.49e-04    -  1.00e+00 1.00e+00f  1
   5  9.9999999e-01 0.00e+00 2.51e-14  -8.6 1.84e-06    -  1.00e+00 1.00e+00f  1

Number of Iterations....: 5

                                   (scaled)                 (unscaled)
Objective...............:   9.9999999250590355e-01    9.9999999250590355e-01
Dual infeasibility......:   2.5091040356528538e-14    2.5091040356528538e-14
Constraint violation....:   0.0000000000000000e+00    0.0000000000000000e+00
Complementarity.........:   2.5059035936250962e-09    2.5059035936250962e-09
Overall NLP error.......:   2.5059035936250962e-09    2.5059035936250962e-09


Number of objective function evaluations             = 6
Number of objective gradient evaluations             = 6
Number of equality constraint evaluations            = 6
Number of inequality constraint evaluations          = 0
Number of equality constraint Jacobian evaluations   = 6
Number of inequality constraint Jacobian evaluations = 0
Number of Lagrangian Hessian evaluations             = 5
Total CPU secs in IPOPT (w/o function evaluations)   =      0.000
Total CPU secs in NLP function evaluations           =      0.000

EXIT: Optimal Solution Found.

************************ CUTEst statistics ************************


 Package used            :  IPOPT
 Problem                 :  EXTRASIM  
 # variables             =               2
 # constraints           =               1
 # objective functions   =        0.1300000E+02
 # objective gradients   =        0.7000000E+01
 # objective Hessians    =        0.6000000E+01
 # Hessian-vector prdct  =        0.0000000E+00
 # constraints functions =        0.1400000E+02
 # constraints gradients =        0.8000000E+01
 # constraints Hessians  =        0.6000000E+01
 Exit code               =               0
 Final f                 =        9.9999999250590355D-01
 Bounds feasibility      =        7.4940964063749669D-09
 Set up time             =            0.00 seconds
 Solve time              =            0.04 seconds


******************************************************************

